(set-logic QF_S)
(declare-fun var0 () String)
(declare-fun var1 () Int)
(declare-fun var2 () Bool)
(declare-fun var3 () String)
(declare-fun var4 () Int)
(declare-fun var5 () Bool)
(declare-fun var6 () String)
(declare-fun var7 () Int)
(declare-fun var8 () Bool)
(assert (not (> (str.indexof var3 var6 var1) (str.len var0))))
(assert (str.contains (str.substr "Ln*}=ygPuh" var1 var7) (str.replace var0 var0 var6)))
(assert (< (str.indexof "C!]ImB*C'/" var0 var7) (str.indexof var0 var6 4)))
(assert (str.prefixof var0 var0))
(check-sat)